c *********************************
c * Circuit generated by BenCGen
c *
c * NonRestoringArrayDivider_3
c *
c * Ports with 1 gate(s): 4
c * Ports with 2 gate(s): 55
c * Total gates: 59
c *********************************
p cnf 70 200
1 18 0
-1 -18 0
1 -17 0
18 -17 0
-1 -18 17 0
17 19 0
-17 -19 0
17 -15 0
-17 15 0
17 -16 0
-17 16 0
19 6 -24 0
-19 6 24 0
19 -6 24 0
-19 -6 -24 0
3 24 -25 0
-3 24 25 0
3 -24 25 0
-3 -24 -25 0
25 19 -20 0
-25 19 20 0
25 -19 20 0
-25 -19 -20 0
19 -26 0
25 -26 0
-19 -25 26 0
24 -27 0
3 -27 0
-24 -3 27 0
-26 23 0
-27 23 0
26 27 -23 0
19 7 -29 0
-19 7 29 0
19 -7 29 0
-19 -7 -29 0
4 29 -30 0
-4 29 30 0
4 -29 30 0
-4 -29 -30 0
30 23 -21 0
-30 23 21 0
30 -23 21 0
-30 -23 -21 0
23 -31 0
30 -31 0
-23 -30 31 0
29 -32 0
4 -32 0
-29 -4 32 0
-31 28 0
-32 28 0
31 32 -28 0
19 8 -33 0
-19 8 33 0
19 -8 33 0
-19 -8 -33 0
5 33 -34 0
-5 33 34 0
5 -33 34 0
-5 -33 -34 0
34 28 -22 0
-34 28 22 0
34 -28 22 0
-34 -28 -22 0
28 -35 0
34 -35 0
-28 -34 35 0
33 -36 0
5 -36 0
-33 -5 36 0
-35 11 0
-36 11 0
35 36 -11 0
11 6 -41 0
-11 6 41 0
11 -6 41 0
-11 -6 -41 0
2 41 -42 0
-2 41 42 0
2 -41 42 0
-2 -41 -42 0
42 11 -37 0
-42 11 37 0
42 -11 37 0
-42 -11 -37 0
11 -43 0
42 -43 0
-11 -42 43 0
41 -44 0
2 -44 0
-41 -2 44 0
-43 40 0
-44 40 0
43 44 -40 0
11 7 -46 0
-11 7 46 0
11 -7 46 0
-11 -7 -46 0
20 46 -47 0
-20 46 47 0
20 -46 47 0
-20 -46 -47 0
47 40 -38 0
-47 40 38 0
47 -40 38 0
-47 -40 -38 0
40 -48 0
47 -48 0
-40 -47 48 0
46 -49 0
20 -49 0
-46 -20 49 0
-48 45 0
-49 45 0
48 49 -45 0
11 8 -50 0
-11 8 50 0
11 -8 50 0
-11 -8 -50 0
21 50 -51 0
-21 50 51 0
21 -50 51 0
-21 -50 -51 0
51 45 -39 0
-51 45 39 0
51 -45 39 0
-51 -45 -39 0
45 -52 0
51 -52 0
-45 -51 52 0
50 -53 0
21 -53 0
-50 -21 53 0
-52 10 0
-53 10 0
52 53 -10 0
10 6 -55 0
-10 6 55 0
10 -6 55 0
-10 -6 -55 0
1 55 -56 0
-1 55 56 0
1 -55 56 0
-1 -55 -56 0
56 10 -12 0
-56 10 12 0
56 -10 12 0
-56 -10 -12 0
10 -57 0
56 -57 0
-10 -56 57 0
55 -58 0
1 -58 0
-55 -1 58 0
-57 54 0
-58 54 0
57 58 -54 0
10 7 -60 0
-10 7 60 0
10 -7 60 0
-10 -7 -60 0
37 60 -61 0
-37 60 61 0
37 -60 61 0
-37 -60 -61 0
61 54 -13 0
-61 54 13 0
61 -54 13 0
-61 -54 -13 0
54 -62 0
61 -62 0
-54 -61 62 0
60 -63 0
37 -63 0
-60 -37 63 0
-62 59 0
-63 59 0
62 63 -59 0
10 8 -64 0
-10 8 64 0
10 -8 64 0
-10 -8 -64 0
38 64 -65 0
-38 64 65 0
38 -64 65 0
-38 -64 -65 0
65 59 -14 0
-65 59 14 0
65 -59 14 0
-65 -59 -14 0
59 -66 0
65 -66 0
-59 -65 66 0
64 -67 0
38 -67 0
-64 -38 67 0
-66 9 0
-67 9 0
66 67 -9 0
